unsat
(forall ((A (_ BitVec 20))
         (B (_ BitVec 20))
         (C (_ BitVec 1))
         (D (_ BitVec 20))
         (E (_ BitVec 20))
         (F (_ BitVec 20))
         (G (_ BitVec 20))
         (H (_ BitVec 20))
         (I (_ BitVec 20))
         (J (_ BitVec 20))
         (K (_ BitVec 38))
         (L (_ BitVec 20))
         (M (_ BitVec 20))
         (N (_ BitVec 17))
         (O (_ BitVec 17))
         (P (_ BitVec 17))
         (Q (_ BitVec 17))
         (R (_ BitVec 1))
         (S (_ BitVec 1))
         (T (_ BitVec 18))
         (U (_ BitVec 20))
         (V (_ BitVec 20))
         (W (_ BitVec 20))
         (X (_ BitVec 1))
         (Y (_ BitVec 20))
         (Z (_ BitVec 20))
         (A1 (_ BitVec 20))
         (B1 (_ BitVec 20))
         (C1 (_ BitVec 20))
         (D1 (_ BitVec 18))
         (E1 (_ BitVec 20))
         (F1 (_ BitVec 20))
         (G1 (_ BitVec 20))
         (H1 (_ BitVec 20))
         (I1 (_ BitVec 38))
         (J1 (_ BitVec 17))
         (K1 (_ BitVec 1))
         (L1 (_ BitVec 20))
         (M1 (_ BitVec 20))
         (N1 (_ BitVec 22))
         (O1 (_ BitVec 20))
         (P1 (_ BitVec 38))
         (Q1 (_ BitVec 20))
         (R1 (_ BitVec 20))
         (S1 (_ BitVec 1))
         (T1 (_ BitVec 38))
         (U1 (_ BitVec 20))
         (V1 (_ BitVec 17))
         (W1 (_ BitVec 20))
         (X1 (_ BitVec 1))
         (Y1 (_ BitVec 1))
         (Z1 (_ BitVec 20))
         (A2 (_ BitVec 20))
         (B2 (_ BitVec 20))
         (C2 (_ BitVec 20))
         (D2 (_ BitVec 18))
         (E2 (_ BitVec 20))
         (F2 (_ BitVec 20))
         (G2 (_ BitVec 22))
         (H2 (_ BitVec 20))
         (I2 (_ BitVec 20))
         (J2 (_ BitVec 20))
         (K2 (_ BitVec 20))
         (L2 (_ BitVec 20))
         (M2 (_ BitVec 38))
         (N2 (_ BitVec 22))
         (O2 (_ BitVec 1))
         (P2 (_ BitVec 1))
         (Q2 (_ BitVec 14))
         (R2 (_ BitVec 38))
         (S2 (_ BitVec 20))
         (T2 (_ BitVec 16))
         (U2 (_ BitVec 14))
         (V2 (_ BitVec 22))
         (W2 (_ BitVec 14))
         (X2 (_ BitVec 22))
         (Y2 (_ BitVec 14))
         (Z2 (_ BitVec 14))
         (A3 (_ BitVec 22))
         (B3 (_ BitVec 38))
         (C3 (_ BitVec 30))
         (D3 (_ BitVec 30))
         (E3 (_ BitVec 20))
         (F3 (_ BitVec 20))
         (G3 (_ BitVec 20))
         (H3 (_ BitVec 20))
         (I3 (_ BitVec 20))
         (J3 (_ BitVec 20))
         (K3 (_ BitVec 16))
         (L3 (_ BitVec 30))
         (M3 (_ BitVec 1))
         (N3 (_ BitVec 38))
         (O3 (_ BitVec 30)))
  (! (let ((a!1 (or (not (= V #x00000))
                    (= ((_ extract 2 2) B1) #b1)
                    (not (= ((_ extract 2 2) C2) #b1))))
           (a!2 (= ((_ extract 29 2)
                     (bvadd (concat #x00 N2) ((_ extract 37 8) I1)))
                   #x0000000))
           (a!3 (or (= C2 #x00000)
                    (not (= V #x00000))
                    (= ((_ extract 2 2) B1) #b1)
                    (not (= ((_ extract 1 0) B1) #b00))))
           (a!4 (= ((_ extract 31 4)
                     (bvadd ((_ extract 37 6) M2) (concat #b0000000000 X2)))
                   #x0000000))
           (a!5 (= ((_ extract 3 2)
                     (bvadd ((_ extract 37 6) M2) (concat #b0000000000 X2)))
                   #b00))
           (a!6 (or (not (= V #x00000))
                    (not (= ((_ extract 1 1) C2) #b1))
                    (= ((_ extract 1 1) B1) #b1)))
           (a!7 (= ((_ extract 33 6)
                     (bvadd ((_ extract 37 4) T1) (concat #x000 V2)))
                   #x0000000))
           (a!8 (= ((_ extract 3 2)
                     (bvadd ((_ extract 37 4) T1) (concat #x000 V2)))
                   #b00))
           (a!9 (= ((_ extract 5 4)
                     (bvadd ((_ extract 37 4) T1) (concat #x000 V2)))
                   #b00))
           (a!10 ((_ extract 22 8)
                   (bvadd (concat #b000 ((_ extract 21 2) G2)) (concat #b0 N1))))
           (a!11 ((_ extract 5 4)
                   (bvadd (concat #b000 ((_ extract 21 2) G2)) (concat #b0 N1))))
           (a!12 ((_ extract 7 6)
                   (bvadd (concat #b000 ((_ extract 21 2) G2)) (concat #b0 N1))))
           (a!13 (or ((_ bit2bool 0) Q)
                     ((_ bit2bool 1) Q)
                     ((_ bit2bool 2) Q)
                     (= ((_ extract 3 2) G2) (bvmul #b11 ((_ extract 1 0) N1)))))
           (a!14 ((_ extract 3 2)
                   (bvadd (concat #b000 ((_ extract 21 2) G2)) (concat #b0 N1))))
           (a!15 (or ((_ bit2bool 1) J1)
                     ((_ bit2bool 2) J1)
                     (= ((_ extract 5 4) T1) (bvmul #b11 ((_ extract 1 0) V2))))))
     (let ((a!16 (and (or (= P1 #b00000000000000000000000000000000000000)
                          ((_ bit2bool 0) V1)
                          ((_ bit2bool 1) V1)
                          ((_ bit2bool 2) V1))
                      (not ((_ bit2bool 5) W2))
                      (not ((_ bit2bool 4) W2))
                      (not ((_ bit2bool 3) W2))
                      (not ((_ bit2bool 2) W2))
                      (not ((_ bit2bool 1) W2))
                      (not ((_ bit2bool 0) W2))
                      (not ((_ bit2bool 3) Y2))
                      (not ((_ bit2bool 2) Y2))
                      (not ((_ bit2bool 1) Y2))
                      (not ((_ bit2bool 0) Y2))
                      (not ((_ bit2bool 7) U2))
                      (not ((_ bit2bool 6) U2))
                      (not ((_ bit2bool 5) U2))
                      (not ((_ bit2bool 4) U2))
                      (not ((_ bit2bool 3) U2))
                      (not ((_ bit2bool 2) U2))
                      (not ((_ bit2bool 1) U2))
                      (not ((_ bit2bool 0) U2))
                      (= ((_ extract 37 10) K)
                         (bvmul #xfffffff (concat #b000000 A3)))
                      (not (= ((_ extract 17 17) T) #b1))
                      (or ((_ bit2bool 0) D1)
                          ((_ bit2bool 0) T)
                          (not ((_ bit2bool 0) D2)))
                      (or ((_ bit2bool 2) V)
                          ((_ bit2bool 0) B1)
                          (not ((_ bit2bool 1) V))
                          (not ((_ bit2bool 2) B1))
                          (not ((_ bit2bool 0) V))
                          (not ((_ bit2bool 1) B1))
                          (= ((_ extract 1 1) C2) #b1))
                      (not (= ((_ extract 17 17) D1) #b1))
                      a!1
                      (not ((_ bit2bool 0) Z2))
                      (not ((_ bit2bool 1) Z2))
                      (or (not ((_ bit2bool 0) R)) (= S #b1))
                      (not (= ((_ extract 7 7) J) #b1))
                      (not (= ((_ extract 3 3) J) #b1))
                      (not (= ((_ extract 4 4) J) #b1))
                      (not (= ((_ extract 14 14) J) #b1))
                      (not (= ((_ extract 11 11) J) #b1))
                      (not (= ((_ extract 17 17) J) #b1))
                      (not (= ((_ extract 8 8) J) #b1))
                      (not (= ((_ extract 9 9) J) #b1))
                      a!2
                      (not (= ((_ extract 18 18) J) #b1))
                      (= ((_ extract 9 8) I1) (bvmul #b11 ((_ extract 1 0) N2)))
                      (not (= ((_ extract 17 17) D2) #b1))
                      (or ((_ bit2bool 0) D2)
                          ((_ bit2bool 0) T)
                          (not ((_ bit2bool 0) D1)))
                      a!3
                      a!4
                      a!5
                      (= ((_ extract 7 6) M2) (bvmul #b11 ((_ extract 1 0) X2)))
                      a!6
                      (or ((_ bit2bool 1) T)
                          ((_ bit2bool 2) T)
                          ((_ bit2bool 0) T)
                          (not ((_ bit2bool 1) D1))
                          (= ((_ extract 1 1) D2) #b1))
                      (or ((_ bit2bool 1) T)
                          ((_ bit2bool 2) T)
                          ((_ bit2bool 0) T)
                          (not ((_ bit2bool 2) D1))
                          (= ((_ extract 2 2) D2) #b1))
                      a!7
                      a!8
                      a!9
                      (or (not ((_ bit2bool 0) B1))
                          (not ((_ bit2bool 0) V))
                          (not ((_ bit2bool 0) C2)))
                      (= a!10 #b000000000000000)
                      (= ((_ extract 5 4) N1) #b00)
                      (= a!11 #b00)
                      (= a!12 #b00)
                      (or ((_ bit2bool 1) T)
                          ((_ bit2bool 0) D1)
                          ((_ bit2bool 0) T)
                          ((_ bit2bool 1) D1)
                          (not ((_ bit2bool 1) D2)))
                      (= ((_ extract 37 10) I1) #x0000000)
                      (or ((_ bit2bool 1) D1)
                          (not (= D2 #b000000000000000100))
                          (not (= T #b000000000000000010)))
                      a!13
                      (or ((_ bit2bool 2) Q) (= ((_ extract 1 0) N1) #b00))
                      (or ((_ bit2bool 0) Q)
                          ((_ bit2bool 1) Q)
                          (= ((_ extract 1 0) G2) #b00))
                      (or ((_ bit2bool 0) J1)
                          ((_ bit2bool 1) J1)
                          ((_ bit2bool 2) J1)
                          (= ((_ extract 3 0) T1) #x0))
                      (or ((_ bit2bool 1) Q) ((_ bit2bool 2) Q) (= a!14 #b00))
                      a!15
                      (or ((_ bit2bool 2) P)
                          ((_ bit2bool 0) P)
                          ((_ bit2bool 1) P)
                          (= ((_ extract 5 0) M2) #b000000))
                      (or ((_ bit2bool 0) O)
                          ((_ bit2bool 1) O)
                          ((_ bit2bool 2) O)
                          (= ((_ extract 7 0) I1) #x00))
                      (or ((_ bit2bool 2) N)
                          ((_ bit2bool 0) N)
                          ((_ bit2bool 1) N)
                          (= ((_ extract 9 0) K) #b0000000000)))))
       (= (INV!slice!1 A
                       B
                       C
                       D
                       E
                       F
                       G
                       H
                       I
                       J
                       K
                       L
                       M
                       N
                       O
                       P
                       Q
                       R
                       S
                       T
                       U
                       V
                       W
                       X
                       Y
                       Z
                       A1
                       B1
                       C1
                       D1
                       E1
                       F1
                       G1
                       H1
                       I1
                       J1
                       K1
                       L1
                       M1
                       N1
                       O1
                       P1
                       Q1
                       R1
                       S1
                       T1
                       U1
                       V1
                       W1
                       X1
                       Y1
                       Z1
                       A2
                       B2
                       C2
                       D2
                       E2
                       F2
                       G2
                       H2
                       I2
                       J2
                       K2
                       L2
                       M2
                       N2
                       O2
                       P2
                       Q2
                       R2
                       S2
                       T2
                       U2
                       V2
                       W2
                       X2
                       Y2
                       Z2
                       A3
                       B3
                       C3
                       D3
                       E3
                       F3
                       G3
                       H3
                       I3
                       J3
                       K3
                       L3
                       M3
                       N3
                       O3)
          a!16)))
     :weight 0))
